p edge 318 579
e 1 8 1
e 1 2 1
e 2 9 1
e 3 12 1
e 3 4 1
e 4 13 1
e 5 14 1
e 5 6 1
e 6 15 1
e 6 7 1
e 7 16 1
e 7 8 1
e 8 17 1
e 8 9 1
e 9 18 1
e 9 10 1
e 10 19 1
e 10 11 1
e 11 20 1
e 11 12 1
e 12 21 1
e 12 13 1
e 13 22 1
e 14 15 1
e 15 25 1
e 15 16 1
e 16 26 1
e 16 17 1
e 17 27 1
e 17 18 1
e 18 28 1
e 18 19 1
e 19 29 1
e 19 20 1
e 20 30 1
e 20 21 1
e 21 31 1
e 21 22 1
e 22 32 1
e 22 23 1
e 23 33 1
e 23 24 1
e 24 34 1
e 25 40 1
e 25 26 1
e 26 41 1
e 26 27 1
e 27 42 1
e 27 28 1
e 28 43 1
e 28 29 1
e 29 44 1
e 29 30 1
e 30 45 1
e 30 31 1
e 31 46 1
e 31 32 1
e 32 47 1
e 32 33 1
e 33 48 1
e 33 34 1
e 34 49 1
e 34 35 1
e 35 50 1
e 36 51 1
e 36 37 1
e 37 52 1
e 37 38 1
e 38 53 1
e 38 39 1
e 39 54 1
e 40 58 1
e 40 41 1
e 41 59 1
e 41 42 1
e 42 60 1
e 42 43 1
e 43 61 1
e 43 44 1
e 44 62 1
e 44 45 1
e 45 63 1
e 45 46 1
e 46 64 1
e 46 47 1
e 47 65 1
e 47 48 1
e 48 66 1
e 48 49 1
e 49 67 1
e 49 50 1
e 50 68 1
e 51 71 1
e 51 52 1
e 52 72 1
e 52 53 1
e 53 73 1
e 53 54 1
e 54 74 1
e 54 55 1
e 55 75 1
e 55 56 1
e 56 76 1
e 56 57 1
e 57 77 1
e 58 79 1
e 58 59 1
e 59 80 1
e 59 60 1
e 60 81 1
e 60 61 1
e 61 82 1
e 61 62 1
e 62 83 1
e 62 63 1
e 63 84 1
e 63 64 1
e 64 85 1
e 64 65 1
e 65 86 1
e 65 66 1
e 66 87 1
e 66 67 1
e 67 88 1
e 67 68 1
e 68 89 1
e 68 69 1
e 69 90 1
e 69 70 1
e 70 91 1
e 70 71 1
e 71 92 1
e 71 72 1
e 72 93 1
e 72 73 1
e 73 94 1
e 73 74 1
e 74 95 1
e 74 75 1
e 75 96 1
e 75 76 1
e 76 97 1
e 76 77 1
e 77 98 1
e 77 78 1
e 78 99 1
e 79 100 1
e 79 80 1
e 80 101 1
e 80 81 1
e 81 102 1
e 81 82 1
e 82 103 1
e 82 83 1
e 83 104 1
e 83 84 1
e 84 105 1
e 84 85 1
e 85 106 1
e 85 86 1
e 86 107 1
e 86 87 1
e 87 108 1
e 87 88 1
e 88 109 1
e 88 89 1
e 89 110 1
e 89 90 1
e 90 111 1
e 90 91 1
e 91 112 1
e 91 92 1
e 92 113 1
e 92 93 1
e 93 114 1
e 93 94 1
e 94 115 1
e 94 95 1
e 95 116 1
e 95 96 1
e 96 117 1
e 96 97 1
e 97 118 1
e 97 98 1
e 98 119 1
e 98 99 1
e 99 120 1
e 100 101 1
e 101 121 1
e 101 102 1
e 102 122 1
e 102 103 1
e 103 123 1
e 103 104 1
e 104 124 1
e 104 105 1
e 105 125 1
e 105 106 1
e 106 126 1
e 106 107 1
e 107 127 1
e 107 108 1
e 108 128 1
e 108 109 1
e 109 129 1
e 109 110 1
e 110 130 1
e 110 111 1
e 111 131 1
e 111 112 1
e 112 132 1
e 112 113 1
e 113 133 1
e 113 114 1
e 114 134 1
e 114 115 1
e 115 135 1
e 115 116 1
e 116 136 1
e 116 117 1
e 117 118 1
e 118 119 1
e 119 120 1
e 121 122 1
e 122 137 1
e 122 123 1
e 123 138 1
e 123 124 1
e 124 139 1
e 124 125 1
e 125 140 1
e 125 126 1
e 126 141 1
e 126 127 1
e 127 142 1
e 127 128 1
e 128 143 1
e 128 129 1
e 129 144 1
e 129 130 1
e 130 145 1
e 130 131 1
e 131 146 1
e 131 132 1
e 132 147 1
e 132 133 1
e 133 148 1
e 133 134 1
e 134 149 1
e 134 135 1
e 135 136 1
e 137 150 1
e 137 138 1
e 138 151 1
e 138 139 1
e 139 152 1
e 139 140 1
e 140 153 1
e 140 141 1
e 141 154 1
e 141 142 1
e 142 155 1
e 142 143 1
e 143 156 1
e 143 144 1
e 144 157 1
e 144 145 1
e 145 158 1
e 145 146 1
e 146 159 1
e 146 147 1
e 147 148 1
e 148 149 1
e 150 160 1
e 150 151 1
e 151 161 1
e 151 152 1
e 152 162 1
e 152 153 1
e 153 163 1
e 153 154 1
e 154 164 1
e 154 155 1
e 155 165 1
e 155 156 1
e 156 166 1
e 156 157 1
e 157 167 1
e 157 158 1
e 158 168 1
e 158 159 1
e 159 169 1
e 160 171 1
e 160 161 1
e 161 172 1
e 161 162 1
e 162 173 1
e 162 163 1
e 163 174 1
e 163 164 1
e 164 175 1
e 164 165 1
e 165 176 1
e 165 166 1
e 166 177 1
e 166 167 1
e 167 178 1
e 167 168 1
e 168 179 1
e 168 169 1
e 169 180 1
e 170 182 1
e 170 171 1
e 171 183 1
e 171 172 1
e 172 184 1
e 172 173 1
e 173 185 1
e 173 174 1
e 174 186 1
e 174 175 1
e 175 187 1
e 175 176 1
e 176 188 1
e 176 177 1
e 177 189 1
e 177 178 1
e 178 190 1
e 178 179 1
e 179 191 1
e 179 180 1
e 180 192 1
e 181 193 1
e 181 182 1
e 182 194 1
e 182 183 1
e 183 195 1
e 183 184 1
e 184 196 1
e 184 185 1
e 185 197 1
e 185 186 1
e 186 198 1
e 186 187 1
e 187 199 1
e 187 188 1
e 188 200 1
e 188 189 1
e 189 201 1
e 189 190 1
e 190 202 1
e 190 191 1
e 191 203 1
e 191 192 1
e 192 204 1
e 193 205 1
e 193 194 1
e 194 206 1
e 194 195 1
e 195 207 1
e 195 196 1
e 196 208 1
e 196 197 1
e 197 209 1
e 197 198 1
e 198 210 1
e 198 199 1
e 199 211 1
e 199 200 1
e 200 212 1
e 200 201 1
e 201 213 1
e 201 202 1
e 202 214 1
e 202 203 1
e 203 215 1
e 203 204 1
e 204 216 1
e 205 217 1
e 205 206 1
e 206 218 1
e 206 207 1
e 207 219 1
e 207 208 1
e 208 220 1
e 208 209 1
e 209 221 1
e 209 210 1
e 210 222 1
e 210 211 1
e 211 223 1
e 211 212 1
e 212 224 1
e 212 213 1
e 213 225 1
e 213 214 1
e 214 226 1
e 214 215 1
e 215 227 1
e 215 216 1
e 216 228 1
e 217 229 1
e 217 218 1
e 218 230 1
e 218 219 1
e 219 231 1
e 219 220 1
e 220 232 1
e 220 221 1
e 221 233 1
e 221 222 1
e 222 234 1
e 222 223 1
e 223 235 1
e 223 224 1
e 224 236 1
e 224 225 1
e 225 237 1
e 225 226 1
e 226 238 1
e 226 227 1
e 227 239 1
e 227 228 1
e 228 240 1
e 229 241 1
e 229 230 1
e 230 242 1
e 230 231 1
e 231 243 1
e 231 232 1
e 232 244 1
e 232 233 1
e 233 245 1
e 233 234 1
e 234 246 1
e 234 235 1
e 235 247 1
e 235 236 1
e 236 248 1
e 236 237 1
e 237 249 1
e 237 238 1
e 238 250 1
e 238 239 1
e 239 251 1
e 239 240 1
e 240 252 1
e 241 253 1
e 241 242 1
e 242 254 1
e 242 243 1
e 243 255 1
e 243 244 1
e 244 256 1
e 244 245 1
e 245 257 1
e 245 246 1
e 246 258 1
e 246 247 1
e 247 259 1
e 247 248 1
e 248 260 1
e 248 249 1
e 249 261 1
e 249 250 1
e 250 262 1
e 250 251 1
e 251 263 1
e 251 252 1
e 252 264 1
e 253 265 1
e 253 254 1
e 254 266 1
e 254 255 1
e 255 267 1
e 255 256 1
e 256 268 1
e 256 257 1
e 257 269 1
e 257 258 1
e 258 270 1
e 258 259 1
e 259 271 1
e 259 260 1
e 260 272 1
e 260 261 1
e 261 273 1
e 261 262 1
e 262 274 1
e 262 263 1
e 263 275 1
e 263 264 1
e 264 276 1
e 265 266 1
e 266 277 1
e 266 267 1
e 267 278 1
e 267 268 1
e 268 279 1
e 268 269 1
e 269 280 1
e 269 270 1
e 270 281 1
e 270 271 1
e 271 282 1
e 271 272 1
e 272 283 1
e 272 273 1
e 273 284 1
e 273 274 1
e 274 285 1
e 274 275 1
e 275 286 1
e 275 276 1
e 276 287 1
e 277 288 1
e 277 278 1
e 278 289 1
e 278 279 1
e 279 290 1
e 279 280 1
e 280 291 1
e 280 281 1
e 281 292 1
e 281 282 1
e 282 293 1
e 282 283 1
e 283 294 1
e 283 284 1
e 284 295 1
e 284 285 1
e 285 296 1
e 285 286 1
e 286 287 1
e 288 299 1
e 288 289 1
e 289 300 1
e 289 290 1
e 290 301 1
e 290 291 1
e 291 302 1
e 291 292 1
e 292 303 1
e 292 293 1
e 293 304 1
e 293 294 1
e 294 305 1
e 294 295 1
e 295 306 1
e 295 296 1
e 296 307 1
e 297 308 1
e 297 298 1
e 298 309 1
e 298 299 1
e 299 310 1
e 299 300 1
e 300 311 1
e 300 301 1
e 301 302 1
e 302 303 1
e 303 304 1
e 304 312 1
e 304 305 1
e 305 306 1
e 306 307 1
e 308 309 1
e 309 313 1
e 309 310 1
e 310 314 1
e 310 311 1
e 311 315 1
e 313 316 1
e 313 314 1
e 314 317 1
e 314 315 1
e 315 318 1
e 316 317 1
e 317 318 1